100 6000
1 50
2 15
1 39
2 34
2 48
1 19
2 1
1 20
1 33
1 7
1 12
2 21
1 45
2 35
1 42
1 31
1 5
1 3
2 49
1 7
2 40
1 16
1 38
1 6
2 22
2 29
1 44
1 9
2 17
1 26
2 12
1 42
2 18
1 37
1 4
1 8
1 36
2 8
1 38
1 48
2 19
2 47
2 34
2 20
2 14
1 41
2 30
2 1
2 49
2 32
1 50
1 27
1 17
2 46
1 30
1 44
2 18
1 15
1 23
2 33
1 9
2 43
2 4
2 40
2 2
2 10
1 2
1 10
1 47
1 31
2 32
1 28
2 36
1 29
2 21
2 27
2 22
2 43
2 25
1 24
1 13
2 45
1 5
2 41
1 26
2 46
1 6
2 11
1 28
2 39
2 13
2 14
1 16
2 35
2 24
1 3
1 11
2 23
1 25
2 37
